Period = 21;

TSS_period = 650;
TSSb_period = 650;
TSSr_period = 650;
TSSs_period = 650;

CTLconst = 42;
ATLconst = 7;
CTLramp = 4;

CTL_0 = 49;
CTLb_0 = 28;
CTLr_0 = 10;
CTLs_0 = 11;

ATL_0 = 43;
ATLb_0 = 16;
ATLr_0 = 17;
ATLs_0 = 10;